50, 2476309
100028, 107
100002, 703
100074, 653
100011, 941
100053, 272
100009, 256
100048, 735
100069, 659
100054, 303
100045, 685
100048, 397
100044, 778
100060, 119
100009, 224
100047, 902
100023, 359
100087, 261
100094, 805
100006, 632
100014, 150
100071, 552
100057, 664
100001, 165
100071, 652
100095, 124
100042, 338
100035, 84
100057, 205
100094, 978
100026, 404
100030, 991
100019, 439
100063, 608
100047, 873
100025, 687
100039, 112
100003, 590
100031, 634
100099, 182
100059, 95
100028, 875
100094, 514
100036, 194
100025, 453
100003, 219
100014, 799
100020, 501
100023, 103
100088, 819
100026, 90
